80 5
311
3110
622
2177
1244
3110
311
622
1555
1555
1555
1555
933
1244
2488
3110
2177
2488
311
1555
2177
622
1866
3110
311
2177
2488
2488
933
1866
933
2799
311
622
2177
2488
1244
2177
2488
2177
2799
2488
1866
2488
1244
2799
311
311
2488
1244
1555
311
1244
1244
2177
3110
622
311
311
2488
622
1244
1244
622
1866
1866
3110
622
1244
1555
2488
3110
1866
622
1866
933
2799
1244
933
2177
9910
28142
16610
26244
50025
